(set-logic ALL)
(declare-var x (_ BitVec 32))
(declare-var n (_ BitVec 32))
(declare-var v1 (_ BitVec 32))
(declare-var v2 (_ BitVec 32))
(declare-var v3 (_ BitVec 32))
(declare-var x! (_ BitVec 32))
(declare-var n! (_ BitVec 32))
(declare-var v1! (_ BitVec 32))
(declare-var v2! (_ BitVec 32))
(declare-var v3! (_ BitVec 32))
(synth-fun inv-f((parameter0 (_ BitVec 32))(parameter1 (_ BitVec 32))(parameter2 (_ BitVec 32))(parameter3 (_ BitVec 32))(parameter4 (_ BitVec 32)))Bool) 
(constraint (=> (= x (_ bv0 32))(inv-f x n v1 v2 v3 )))
(constraint (=> (and (inv-f x n v1 v2 v3 ) (and (= n! n) (and (bvult x n) (= x! (bvadd x (_ bv1 32))) ) ) )(inv-f x! n! v1! v2! v3! )))
(constraint (=> (inv-f x n v1 v2 v3 )(or (not (bvuge x n)) (or (= x n) (bvult n (_ bv0 32)) ) )))
(check-synth)

